c
c
c
c
c
21 231
0 0 -1
0 1 21
0 2 5
0 3 20
0 4 23
0 5 21
0 6 28
0 7 1
0 8 28
0 9 26
0 10 14
0 11 9
0 12 21
0 13 14
0 14 15
0 15 11
0 16 10
0 17 7
0 18 7
0 19 1
0 20 16
1 1 -1
1 2 9
1 3 18
1 4 19
1 5 27
1 6 16
1 7 23
1 8 15
1 9 17
1 10 17
1 11 26
1 12 25
1 13 14
1 14 6
1 15 16
1 16 30
1 17 20
1 18 4
1 19 10
1 20 13
2 2 -1
2 3 30
2 4 17
2 5 4
2 6 19
2 7 6
2 8 28
2 9 24
2 10 9
2 11 10
2 12 15
2 13 16
2 14 1
2 15 27
2 16 5
2 17 11
2 18 11
2 19 20
2 20 3
3 3 -1
3 4 22
3 5 15
3 6 25
3 7 14
3 8 7
3 9 24
3 10 6
3 11 24
3 12 28
3 13 2
3 14 9
3 15 2
3 16 23
3 17 22
3 18 27
3 19 14
3 20 10
4 4 -1
4 5 21
4 6 3
4 7 13
4 8 6
4 9 23
4 10 27
4 11 14
4 12 18
4 13 25
4 14 19
4 15 12
4 16 30
4 17 14
4 18 28
4 19 18
4 20 14
5 5 -1
5 6 14
5 7 20
5 8 8
5 9 2
5 10 30
5 11 6
5 12 16
5 13 10
5 14 29
5 15 10
5 16 3
5 17 12
5 18 1
5 19 11
5 20 26
6 6 -1
6 7 1
6 8 5
6 9 5
6 10 28
6 11 9
6 12 14
6 13 7
6 14 15
6 15 4
6 16 17
6 17 8
6 18 29
6 19 25
6 20 17
7 7 -1
7 8 11
7 9 30
7 10 16
7 11 23
7 12 7
7 13 20
7 14 4
7 15 10
7 16 4
7 17 15
7 18 30
7 19 25
7 20 3
8 8 -1
8 9 4
8 10 12
8 11 30
8 12 8
8 13 30
8 14 17
8 15 3
8 16 4
8 17 15
8 18 29
8 19 20
8 20 26
9 9 -1
9 10 3
9 11 18
9 12 7
9 13 23
9 14 4
9 15 29
9 16 1
9 17 26
9 18 6
9 19 8
9 20 10
10 10 -1
10 11 27
10 12 20
10 13 19
10 14 17
10 15 24
10 16 25
10 17 29
10 18 9
10 19 27
10 20 14
11 11 -1
11 12 12
11 13 30
11 14 21
11 15 7
11 16 19
11 17 4
11 18 28
11 19 8
11 20 12
12 12 -1
12 13 9
12 14 27
12 15 3
12 16 18
12 17 26
12 18 25
12 19 5
12 20 18
13 13 -1
13 14 29
13 15 18
13 16 11
13 17 9
13 18 25
13 19 26
13 20 12
14 14 -1
14 15 18
14 16 23
14 17 16
14 18 1
14 19 16
14 20 16
15 15 -1
15 16 2
15 17 27
15 18 4
15 19 21
15 20 9
16 16 -1
16 17 20
16 18 6
16 19 24
16 20 8
17 17 -1
17 18 21
17 19 19
17 20 9
18 18 -1
18 19 27
18 20 12
19 19 -1
19 20 27
20 20 -1
